1100.60
0 59 71 40 15 74 34 45 2 4 20 55 27 72 17 9 30 18 66 24 6 12 42 7 29 73 67 1 10 35 70 60 5 3 57 54 11 53 28 21 51 64 8 32 43 37 46 13 58 65 23 41 62 69 52 39 14 61 25 22 26 33 63 31 19 16 36 38 44 47 50 68 48 56 49
